NAME deposition_srl_ilp
* Max problem is converted into Min one
ROWS
 N  OBJ
 L  constraint1_650
 L  constraint1_651
 L  constraint1_658
 L  constraint1_2241
 L  constraint1_2242
 L  constraint1_2240
 L  constraint1_2245
 L  constraint1_2243
 L  constraint2_650
 L  constraint2_651
 L  constraint2_652
 L  constraint2_653
 L  constraint2_2240
 L  constraint2_2241
 L  constraint2_2242
 L  constraint2_2243
COLUMNS
    MARKER    'MARKER'                 'INTORG'
    Z_65_0_0  OBJ       -6.1093487737126412e-04
    Z_65_0_0  constraint1_650  1
    Z_65_0_0  constraint2_650  1
    Z_65_0_1  OBJ       -9.4986653138168545e-04
    Z_65_0_1  constraint1_650  1
    Z_65_0_1  constraint2_651  1
    Z_65_0_2  OBJ       -5.4819539850596899e-01
    Z_65_0_2  constraint1_650  1
    Z_65_0_2  constraint2_652  1
    Z_65_0_3  OBJ       -9.8863620837373275e-04
    Z_65_0_3  constraint1_650  1
    Z_65_0_3  constraint2_653  1
    Z_65_0_4  OBJ       -3.4925516387690431e-01
    Z_65_0_4  constraint1_650  1
    Z_65_1_0  OBJ       -2.0144340533279400e-02
    Z_65_1_0  constraint1_651  1
    Z_65_1_0  constraint2_650  1
    Z_65_1_1  OBJ       -1.0096370174487636e-01
    Z_65_1_1  constraint1_651  1
    Z_65_1_1  constraint2_651  1
    Z_65_1_2  OBJ       -3.5652535772752028e-02
    Z_65_1_2  constraint1_651  1
    Z_65_1_2  constraint2_652  1
    Z_65_1_3  OBJ       -1.5722584006615314e-02
    Z_65_1_3  constraint1_651  1
    Z_65_1_3  constraint2_653  1
    Z_65_1_4  OBJ       -7.2751683794247701e-01
    Z_65_1_4  constraint1_651  1
    Z_65_8_0  OBJ       -6.1093487737126412e-04
    Z_65_8_0  constraint1_658  1
    Z_65_8_0  constraint2_650  1
    Z_65_8_1  OBJ       -9.4986653138168545e-04
    Z_65_8_1  constraint1_658  1
    Z_65_8_1  constraint2_651  1
    Z_65_8_2  OBJ       -5.4819539850596899e-01
    Z_65_8_2  constraint1_658  1
    Z_65_8_2  constraint2_652  1
    Z_65_8_3  OBJ       -9.8863620837373275e-04
    Z_65_8_3  constraint1_658  1
    Z_65_8_3  constraint2_653  1
    Z_65_8_4  OBJ       -3.4925516387690431e-01
    Z_65_8_4  constraint1_658  1
    Z_224_1_0  OBJ       -6.8414526297903555e-01
    Z_224_1_0  constraint1_2241  1
    Z_224_1_0  constraint2_2240  1
    Z_224_1_1  OBJ       -1.5676148922466465e-02
    Z_224_1_1  constraint1_2241  1
    Z_224_1_1  constraint2_2241  1
    Z_224_1_2  OBJ       -1.4095577920291024e-02
    Z_224_1_2  constraint1_2241  1
    Z_224_1_2  constraint2_2242  1
    Z_224_1_3  OBJ       -1.0740209775011389e-01
    Z_224_1_3  constraint1_2241  1
    Z_224_1_3  constraint2_2243  1
    Z_224_1_4  OBJ       -7.8680912428093108e-02
    Z_224_1_4  constraint1_2241  1
    Z_224_2_0  OBJ       -9.7925048304422016e-04
    Z_224_2_0  constraint1_2242  1
    Z_224_2_0  constraint2_2240  1
    Z_224_2_1  OBJ       -4.0410203482743930e-03
    Z_224_2_1  constraint1_2242  1
    Z_224_2_1  constraint2_2241  1
    Z_224_2_2  OBJ       -8.2934045961761427e-01
    Z_224_2_2  constraint1_2242  1
    Z_224_2_2  constraint2_2242  1
    Z_224_2_3  OBJ       -4.9602447384422214e-03
    Z_224_2_3  constraint1_2242  1
    Z_224_2_3  constraint2_2243  1
    Z_224_2_4  OBJ       -6.0679024812624910e-02
    Z_224_2_4  constraint1_2242  1
    Z_224_0_0  OBJ       -3.3817208243437508e-03
    Z_224_0_0  constraint1_2240  1
    Z_224_0_0  constraint2_2240  1
    Z_224_0_1  OBJ       -3.6940658503652725e-02
    Z_224_0_1  constraint1_2240  1
    Z_224_0_1  constraint2_2241  1
    Z_224_0_2  OBJ       -1.8488484820798914e-02
    Z_224_0_2  constraint1_2240  1
    Z_224_0_2  constraint2_2242  1
    Z_224_0_3  OBJ       -1.7015728670657253e-02
    Z_224_0_3  constraint1_2240  1
    Z_224_0_3  constraint2_2243  1
    Z_224_0_4  OBJ       -8.2417340718054743e-01
    Z_224_0_4  constraint1_2240  1
    Z_224_5_0  OBJ       -1.8306188301112140e-02
    Z_224_5_0  constraint1_2245  1
    Z_224_5_0  constraint2_2240  1
    Z_224_5_1  OBJ       -1.7925123618955102e-01
    Z_224_5_1  constraint1_2245  1
    Z_224_5_1  constraint2_2241  1
    Z_224_5_2  OBJ       -8.1900380575006225e-03
    Z_224_5_2  constraint1_2245  1
    Z_224_5_2  constraint2_2242  1
    Z_224_5_3  OBJ       -4.7963265738072323e-02
    Z_224_5_3  constraint1_2245  1
    Z_224_5_3  constraint2_2243  1
    Z_224_5_4  OBJ       -6.4628927171376394e-01
    Z_224_5_4  constraint1_2245  1
    Z_224_3_0  OBJ       -3.3817208243437508e-03
    Z_224_3_0  constraint1_2243  1
    Z_224_3_0  constraint2_2240  1
    Z_224_3_1  OBJ       -3.6940658503652725e-02
    Z_224_3_1  constraint1_2243  1
    Z_224_3_1  constraint2_2241  1
    Z_224_3_2  OBJ       -1.8488484820798914e-02
    Z_224_3_2  constraint1_2243  1
    Z_224_3_2  constraint2_2242  1
    Z_224_3_3  OBJ       -1.7015728670657253e-02
    Z_224_3_3  constraint1_2243  1
    Z_224_3_3  constraint2_2243  1
    Z_224_3_4  OBJ       -8.2417340718054743e-01
    Z_224_3_4  constraint1_2243  1
    MARKER    'MARKER'                 'INTEND'
RHS
    RHS1      constraint1_650  1
    RHS1      constraint1_651  1
    RHS1      constraint1_658  1
    RHS1      constraint1_2241  1
    RHS1      constraint1_2242  1
    RHS1      constraint1_2240  1
    RHS1      constraint1_2245  1
    RHS1      constraint1_2243  1
    RHS1      constraint2_650  1
    RHS1      constraint2_651  1
    RHS1      constraint2_652  1
    RHS1      constraint2_653  1
    RHS1      constraint2_2240  1
    RHS1      constraint2_2241  1
    RHS1      constraint2_2242  1
    RHS1      constraint2_2243  1
BOUNDS
 UP BND1      Z_65_0_0  1
 UP BND1      Z_65_0_1  1
 UP BND1      Z_65_0_2  1
 UP BND1      Z_65_0_3  1
 UP BND1      Z_65_0_4  1
 UP BND1      Z_65_1_0  1
 UP BND1      Z_65_1_1  1
 UP BND1      Z_65_1_2  1
 UP BND1      Z_65_1_3  1
 UP BND1      Z_65_1_4  1
 UP BND1      Z_65_8_0  1
 UP BND1      Z_65_8_1  1
 UP BND1      Z_65_8_2  1
 UP BND1      Z_65_8_3  1
 UP BND1      Z_65_8_4  1
 UP BND1      Z_224_1_0  1
 UP BND1      Z_224_1_1  1
 UP BND1      Z_224_1_2  1
 UP BND1      Z_224_1_3  1
 UP BND1      Z_224_1_4  1
 UP BND1      Z_224_2_0  1
 UP BND1      Z_224_2_1  1
 UP BND1      Z_224_2_2  1
 UP BND1      Z_224_2_3  1
 UP BND1      Z_224_2_4  1
 UP BND1      Z_224_0_0  1
 UP BND1      Z_224_0_1  1
 UP BND1      Z_224_0_2  1
 UP BND1      Z_224_0_3  1
 UP BND1      Z_224_0_4  1
 UP BND1      Z_224_5_0  1
 UP BND1      Z_224_5_1  1
 UP BND1      Z_224_5_2  1
 UP BND1      Z_224_5_3  1
 UP BND1      Z_224_5_4  1
 UP BND1      Z_224_3_0  1
 UP BND1      Z_224_3_1  1
 UP BND1      Z_224_3_2  1
 UP BND1      Z_224_3_3  1
 UP BND1      Z_224_3_4  1
QUADOBJ
    Z_65_0_0  Z_224_1_0  -7.5598292842160908e-02
    Z_65_0_0  Z_224_5_0  -3.3320475769670115e-02
    Z_65_0_0  Z_224_3_0  -2.1678401477342572e-02
    Z_65_0_1  Z_224_1_1  -7.5598292842160908e-02
    Z_65_0_1  Z_224_5_1  -3.3320475769670115e-02
    Z_65_0_1  Z_224_3_1  -2.1678401477342572e-02
    Z_65_0_2  Z_224_1_2  -7.5598292842160908e-02
    Z_65_0_2  Z_224_5_2  -3.3320475769670115e-02
    Z_65_0_2  Z_224_3_2  -2.1678401477342572e-02
    Z_65_0_3  Z_224_1_3  -7.5598292842160908e-02
    Z_65_0_3  Z_224_5_3  -3.3320475769670115e-02
    Z_65_0_3  Z_224_3_3  -2.1678401477342572e-02
    Z_65_0_4  Z_224_1_4  -7.5598292842160908e-02
    Z_65_0_4  Z_224_5_4  -3.3320475769670115e-02
    Z_65_0_4  Z_224_3_4  -2.1678401477342572e-02
    Z_65_1_0  Z_224_1_0  -7.5598292842160908e-02
    Z_65_1_0  Z_224_5_0  -3.3320475769670115e-02
    Z_65_1_0  Z_224_3_0  -2.1678401477342572e-02
    Z_65_1_1  Z_224_1_1  -7.5598292842160908e-02
    Z_65_1_1  Z_224_5_1  -3.3320475769670115e-02
    Z_65_1_1  Z_224_3_1  -2.1678401477342572e-02
    Z_65_1_2  Z_224_1_2  -7.5598292842160908e-02
    Z_65_1_2  Z_224_5_2  -3.3320475769670115e-02
    Z_65_1_2  Z_224_3_2  -2.1678401477342572e-02
    Z_65_1_3  Z_224_1_3  -7.5598292842160908e-02
    Z_65_1_3  Z_224_5_3  -3.3320475769670115e-02
    Z_65_1_3  Z_224_3_3  -2.1678401477342572e-02
    Z_65_1_4  Z_224_1_4  -7.5598292842160908e-02
    Z_65_1_4  Z_224_5_4  -3.3320475769670115e-02
    Z_65_1_4  Z_224_3_4  -2.1678401477342572e-02
ENDATA
